p cnf 13 28
13 -11 3 0
13 10 -7 0
13 10 6 0
13 -8 -3 0
-13 6 3 0
13 5 -3 0
13 4 -2 0
-13 3 -2 0
12 -11 -3 0
-12 10 -8 0
12 8 -5 0
-12 -4 -1 0
11 -9 2 0
11 7 -5 0
11 5 4 0
-10 9 8 0
10 9 2 0
10 -8 6 0
-10 -7 3 0
10 6 -5 0
10 -2 1 0
8 4 2 0
8 2 1 0
-7 5 4 0
6 -5 3 0
6 3 2 0
-5 -4 1 0
4 3 -1 0
